,id
CryptoVonDoom,949458210494140416
basilmountian,1363714642414075915
piovincenzo_,1335776011351416833
0xRay291,1358218183975571464
SilverFir18,1399619147588259841
DanielitoG25,3169368343
tw1tte7,333057491
cameronmoulene,1246225146471309313
ape2616,1400203503562285059
BombNFTs,1458163843285360645
jf_nft,128586963
iamjchase,413960263
CapetainTrippy,1396535452107218945
xBenJamminx,468825226
ElectionDayMad1,1323747353308835840
ape_g4ng,1377387624193794049
tropoFarmer,16273846
kevwuzy,866905964997296128
itstylersays,2289922827
Thenizzar,14742722
JiroNFT,1388949065749172228
ericprhodes,246655218
nftnow,1353062898419994626
KeyboardMonkey3,1346599984528023554
eddyiskongz,1349944659385061377
TaylorGerring,14295211
cobble,2872491695
cipcity,552967290
boredapewood,1416589411626663936
mdudas,7184612
richerd,9897812
0x22_,1371244592872321026
Dario_Desiena,2789708203
mdudas,7184612
comfydevil,1262693401
farokh,3369243892
Shaun8149,1360768568271380487
JoadPogu,1384404382758887424
0xQuit,2573380344
theterpyone,1246157885547175937
R0bertZiff_s,1436231591181783049
adamripps,1138939761647857664
LivingPixelated,16984407
mattmedved,23687471
danielgothits,141784177
1NFTpromotion,1225676690774315010
beijingdou,27553316
AlfieTao,2255915208
NftUae,1376585076880904198
CryptoNovo311,1110364405
Arthur_0x,1357451976
art_pleb,1441132680901369866
Rugal_Bull,1423320146278502402
JRHYcrypto,1356855315690639360
CyrsRockefeller,1424652360442286095
NFTMINES,1429303255591444488
Gauthier_Z,395368074
WangW00ds,1452823640353894400
RayPeraaWEB3,1446385481034334209
sebgomezcr,2782495016
Nft_for_life,1419537075741683720
FabriLemus7,4804114077
Banks,363811679
VonMises14,1265388355392593920
gregisenberg,14642331
DCLBlogger,997715301545361408
punk6529,1388487332093997057
cdixon,2529971
packyM,21306324
digitalartchick,986900699366604800
mevcollector,1423799076529770509
kokid951,118639757
DeezeFi,127646057
ColeThereum,994599742389792768
greatmando_nft,1357410364355395587
RDM_41,728317422
wilxlee,26354941
thebrettway,1941900223
beaniemaxi,1351139954525696005
garyvee,5768872
ohhshin,1940232571
